# Data section
data;

set ParkingSpaces := p1 p2 p3 p4 p5;
set WaitingCars := Car1;

param :
        initLoad :=
    p1     6
    p2     6
    p3     5
    p4     7
    p5     8;

param :
        maxCarCapacity :=
    p1     25
    p2     25
    p3     25
    p4     25
    p5     25;

param :
        parked_car_num :=
    p1     2
    p2     2
    p3     1
    p4     2
    p5     3;

param :
        numPeopleInCar :=
    Car1     5;